
Gurobi 9.5.1 (linux64) logging started Tue 16 Aug 2022 05:58:54 PM MST

Set parameter LogFile to value "/home/local/ASUAD/kmajd1/NNRepLayer_v2/demos/walking_example/global_constraint_upper_10/repair_net/logs/opt_log_multi_48.log"
Gurobi Optimizer version 9.5.1 build v9.5.1rc2 (linux64)
Thread count: 48 physical cores, 96 logical processors, using up to 45 threads
Optimize a model with 16863 rows, 10742 columns and 115263 nonzeros
Model fingerprint: 0x993c3d0c
Model has 149 quadratic objective terms
Variable types: 5974 continuous, 4768 integer (4768 binary)
Coefficient statistics:
  Matrix range     [1e-04, 2e+02]
  Objective range  [3e-03, 1e+00]
  QObjective range [1e-02, 1e-02]
  Bounds range     [1e+00, 2e+03]
  RHS range        [3e-04, 2e+02]

Concurrent MIP optimizer: 3 concurrent instances (15 threads per instance)

Found heuristic solution: objective 191.8007745
Presolve removed 618 rows and 160 columns
Presolve time: 0.15s
Presolved: 16245 rows, 10582 columns, 114325 nonzeros
Presolved model has 149 quadratic objective terms
Variable types: 5814 continuous, 4768 integer (4768 binary)
Root relaxation presolve removed 4768 rows and 4768 columns
Root relaxation presolved: 11477 rows, 5814 columns, 100021 nonzeros
Root relaxation presolved model has 149 quadratic objective terms


Root relaxation: objective 2.834526e+01, 5955 iterations, 0.14 seconds (0.16 work units)

    Nodes    |    Current Node    |     Objective Bounds      |     Work
 Expl Unexpl |  Obj  Depth IntInf | Incumbent    BestBd   Gap | It/Node Time

     0     0      -    -    -      191.80077   28.34526  85.2%     -    0s
     0     0      -    -    -      185.99186   28.34526  84.8%     -    2s
     0     2      -    -    -      185.99186   28.34526  84.8%     -    4s
     7    16      -    -    -      181.54508   28.34526  84.4%     -    5s
    75    91      -    -    -       38.03450   28.34526  25.5%     -   12s
    90   106      -    -    -       38.03450   28.34526  25.5%     -   15s
   135   151      -    -    -       35.92731   28.34526  21.1%     -   20s
  1185  1201      -    -    -       35.77923   28.34526  20.8%     -   30s
  4026  4226      -    -    -       34.71384   28.34526  18.3%     -   35s
  7384  7734      -    -    -       34.71384   28.34526  18.3%     -   40s
 10049 10050      -    -    -       33.92130   28.34526  16.4%     -   53s
 10051  9548      -    -    -       33.92130   28.34526  16.4%     -   56s
 10053  9072      -    -    -       33.92124   28.34526  16.4%     -   65s
 10128  7455      -    -    -       33.19675   28.34526  14.6%     -   89s
 10143  5793      -    -    -       32.95837   28.34526  14.0%     -  108s
 10970  5787      -    -    -       32.95837   28.34526  14.0%     -  110s
 11219  5953      -    -    -       32.89387   28.34526  13.8%     -  137s
 11954  5617      -    -    -       32.86440   28.34526  13.8%     -  144s
 12651  6130      -    -    -       32.86440   28.34526  13.8%     -  145s
 15080  7837      -    -    -       32.86440   28.34526  13.8%     -  152s
 15891  8350      -    -    -       32.86440   28.34526  13.8%     -  155s
 17171  9031      -    -    -       32.86440   28.34526  13.8%     -  160s
 18244 10080      -    -    -       32.76259   28.34526  13.5%     -  165s
 18661 10276      -    -    -       32.76259   28.34526  13.5%     -  193s
 19685 11010      -    -    -       32.76259   28.34526  13.5%     -  195s
 20281 12487      -    -    -       32.76259   28.34526  13.5%     -  200s
 21957 12759      -    -    -       32.76259   28.34526  13.5%     -  207s
 22787 13264      -    -    -       32.76259   28.34526  13.5%     -  213s
 23316 14542      -    -    -       32.74605   28.34526  13.4%     -  216s
 25702 16490      -    -    -       32.74605   28.34526  13.4%     -  222s
 26542 16808      -    -    -       32.74605   28.34526  13.4%     -  226s
 27771 18025      -    -    -       32.74605   28.34526  13.4%     -  237s
 28077 18897      -    -    -       32.74605   28.34526  13.4%     -  240s
 29934 20082      -    -    -       32.74605   28.34526  13.4%     -  250s
 30134 20097      -    -    -       32.74605   28.34526  13.4%     -  273s
 30149 20112      -    -    -       32.40979   28.34526  12.5%     -  437s

Resetting heuristic parameters to focus on improving solution
(using Heuristics=0.5 and RINS=10)...

 30164 21180      -    -    -       32.40979   28.34526  12.5%     -  450s

Instance 0 was solved

Explored 31232 nodes (4858225 simplex iterations) in 450.68 seconds (1358.72 work units)
Thread count was 15 (of 96 available processors)

Solution count 10: 31.7934 31.9214 32.1178 ... 32.3894 

Optimal solution found (tolerance 1.10e-01)
Best objective 3.179343025119e+01, best bound 2.834525967574e+01, gap 10.8455%
